1039	653	774	1125	267	554	441	940	363	863
903	995	430	72	355	0	171	1077	719	1171
144	227	948	1003	850	469	311	618	83	0
827	457	304	626	527	761	686	50	1003	940
363	832	524	0	98	686	591	765	268	186
1125	0	604	860	186	267	375	696	524	798
624	99	882	527	430	948	1047	0	785	1100
562	304	253	171	0	375	98	477	624	719
0	518	684	311	774	850	240	392	908	1003
303	375	1106	253	935	1047	761	562	457	618
